130
Route #1: 1 31 80 103 
Route #2: 2 56 
Route #3: 3 44 81 
Route #4: 4 69 
Route #5: 5 54 101 
Route #6: 6 
Route #7: 7 64 
Route #8: 8 
Route #9: 9 30 63 76 
Route #10: 10 58 99 
Route #11: 11 33 48 61 74 86 97 
Route #12: 12 32 68 108 
Route #13: 13 71 
Route #14: 14 28 77 106 
Route #15: 15 45 57 88 114 
Route #16: 16 
Route #17: 17 39 73 94 
Route #18: 18 
Route #19: 19 72 
Route #20: 20 83 
Route #21: 21 60 82 
Route #22: 22 50 84 92 120 
Route #23: 23 49 70 107 
Route #24: 24 51 65 104 
Route #25: 25 100 
Route #26: 26 55 110 
Route #27: 27 
Route #28: 29 67 
Route #29: 34 59 129 
Route #30: 35 
Route #31: 36 79 
Route #32: 37 53 125 
Route #33: 38 
Route #34: 40 
Route #35: 41 98 
Route #36: 42 75 102 
Route #37: 43 62 93 115 
Route #38: 46 66 124 
Route #39: 47 87 112 
Route #40: 52 105 
Route #41: 78 146 
Route #42: 85 148 
Route #43: 89 134 160 
Route #44: 90 123 166 
Route #45: 91 139 
Route #46: 95 117 144 155 188 
Route #47: 96 159 
Route #48: 109 130 169 197 
Route #49: 111 164 
Route #50: 113 172 
Route #51: 116 162 
Route #52: 118 184 
Route #53: 119 137 171 192 
Route #54: 121 138 199 
Route #55: 122 163 
Route #56: 126 170 
Route #57: 127 167 
Route #58: 128 200 
Route #59: 131 178 
Route #60: 132 142 181 
Route #61: 133 191 
Route #62: 135 193 
Route #63: 136 173 210 
Route #64: 140 175 208 219 
Route #65: 141 196 211 
Route #66: 143 161 195 220 
Route #67: 145 
Route #68: 147 
Route #69: 149 198 
Route #70: 150 
Route #71: 151 194 
Route #72: 152 182 
Route #73: 153 187 
Route #74: 154 
Route #75: 156 179 209 
Route #76: 157 189 
Route #77: 158 
Route #78: 165 
Route #79: 168 190 232 
Route #80: 174 241 
Route #81: 176 207 229 
Route #82: 177 
Route #83: 180 202 251 
Route #84: 183 205 250 
Route #85: 185 236 
Route #86: 186 
Route #87: 201 272 
Route #88: 203 235 283 
Route #89: 204 231 286 
Route #90: 206 259 
Route #91: 212 274 
Route #92: 213 242 294 
Route #93: 214 263 284 
Route #94: 215 244 290 
Route #95: 216 271 
Route #96: 217 266 
Route #97: 218 264 
Route #98: 221 256 299 
Route #99: 222 268 
Route #100: 223 245 254 291 
Route #101: 224 267 293 
Route #102: 225 279 300 
Route #103: 226 269 287 
Route #104: 227 246 281 
Route #105: 228 280 
Route #106: 230 282 
Route #107: 233 277 
Route #108: 234 261 288 
Route #109: 237 
Route #110: 238 292 
Route #111: 239 
Route #112: 240 298 
Route #113: 243 
Route #114: 247 296 
Route #115: 248 
Route #116: 249 
Route #117: 252 
Route #118: 253 
Route #119: 255 278 
Route #120: 257 
Route #121: 258 289 
Route #122: 260 
Route #123: 262 
Route #124: 265 
Route #125: 270 
Route #126: 273 295 
Route #127: 275 
Route #128: 276 
Route #129: 285 
Route #130: 297 
Cost 130.0
